
Gurobi 8.1.1 (mac64, Python) logging started Sat Apr 11 15:16:58 2020

Academic license - for non-commercial use only

Gurobi 8.1.1 (mac64, Python) logging started Sat Apr 11 22:01:15 2020

Academic license - for non-commercial use only

Gurobi 8.1.1 (mac64, Python) logging started Sun Apr 12 19:48:20 2020

Academic license - for non-commercial use only

Gurobi 8.1.1 (mac64, Python) logging started Tue Apr 14 11:09:48 2020

Academic license - for non-commercial use only

Gurobi 8.1.1 (mac64, Python) logging started Tue Apr 14 11:27:52 2020

Academic license - for non-commercial use only

Gurobi 8.1.1 (mac64, Python) logging started Tue Apr 14 17:38:33 2020

Academic license - for non-commercial use only

Gurobi 8.1.1 (mac64, Python) logging started Tue Apr 14 18:05:33 2020

Academic license - for non-commercial use only

Gurobi 8.1.1 (mac64, Python) logging started Wed Apr 15 15:05:25 2020

Academic license - for non-commercial use only

Gurobi 8.1.1 (mac64, Python) logging started Fri Apr 17 09:35:23 2020

Academic license - for non-commercial use only

Gurobi 8.1.1 (mac64, Python) logging started Tue May  5 10:32:04 2020

Academic license - for non-commercial use only
